60
2 1 7
3 0 8
4 0 8
4 1 1
5 1 1
5 4 7
6 0 1
6 1 10
6 3 6
7 1 6
7 3 9
7 4 2
8 0 6
8 1 14
8 2 7
8 4 5
9 0 1
9 2 6
9 3 7
9 4 1
9 6 9
10 0 4
10 2 6
10 4 7
10 5 14
10 6 7
11 1 7
11 3 4
11 5 8
11 6 10
11 8 5
11 9 14
12 0 3
12 2 14
12 4 12
12 5 8
12 7 7
12 8 12
12 9 9
12 10 1
13 1 3
13 2 10
13 3 13
13 5 13
13 7 6
13 8 6
13 11 5
13 12 8
14 0 2
14 1 6
14 2 8
14 7 10
14 9 12
14 10 6
14 11 9
14 12 10
14 13 13
15 2 1
15 3 8
15 4 6
15 5 10
15 6 12
15 7 7
15 8 2
15 9 4
15 10 3
15 13 2
15 14 6
16 0 12
16 9 11
16 10 9
16 11 5
16 14 10
17 0 10
17 1 4
17 2 12
17 4 6
17 5 3
17 8 2
17 9 6
17 10 1
17 11 13
17 12 7
17 15 13
18 0 9
18 1 9
18 4 13
18 6 5
18 9 10
18 11 10
18 14 14
18 17 3
19 0 9
19 2 4
19 4 1
19 9 9
19 11 9
19 13 5
19 14 3
19 15 1
20 0 14
20 2 10
20 4 7
20 5 14
20 6 12
20 7 8
20 9 5
20 11 9
20 12 1
20 14 14
20 15 12
20 17 10
20 18 10
21 0 13
21 1 6
21 2 2
21 4 9
21 6 13
21 8 2
21 10 5
21 19 10
21 20 3
22 0 10
22 1 4
22 2 6
22 3 1
22 5 10
22 6 10
22 7 7
22 8 1
22 9 7
22 10 3
22 17 10
22 18 11
23 6 4
23 9 13
23 11 3
23 13 10
23 14 10
23 17 2
23 21 4
24 3 2
24 5 7
24 6 8
24 7 1
24 8 3
24 9 13
24 11 10
24 12 7
24 13 4
24 17 9
24 18 11
24 20 4
24 23 8
25 0 9
25 1 12
25 3 1
25 8 11
25 9 9
25 10 8
25 12 13
25 14 13
25 15 2
25 17 12
25 20 3
25 22 8
25 23 2
26 1 12
26 5 13
26 6 8
26 7 11
26 8 7
26 11 14
26 13 10
26 14 5
26 16 14
26 17 1
26 19 9
26 23 10
26 24 1
26 25 12
27 2 11
27 4 13
27 9 12
27 13 2
27 15 10
27 16 7
27 17 3
27 20 14
27 24 2
27 26 8
28 2 8
28 3 1
28 6 2
28 8 6
28 9 4
28 12 4
28 13 8
28 16 7
28 18 11
28 20 1
28 21 3
28 22 4
28 23 3
28 24 2
28 25 13
28 27 3
29 0 1
29 3 11
29 4 5
29 10 10
29 12 14
29 13 10
29 17 4
29 19 8
29 20 4
29 22 4
29 23 3
29 24 10
29 25 7
29 26 14
30 4 9
30 6 6
30 7 7
30 8 11
30 10 2
30 12 1
30 14 4
30 26 4
30 27 4
30 28 10
31 0 14
31 2 5
31 5 7
31 7 6
31 8 4
31 9 13
31 10 4
31 11 9
31 13 3
31 15 14
31 16 8
31 18 13
31 20 4
31 21 11
31 23 14
31 26 11
31 27 2
31 29 9
32 0 14
32 1 10
32 2 6
32 3 6
32 6 3
32 7 14
32 8 14
32 11 11
32 14 5
32 15 14
32 16 1
32 17 1
32 18 5
32 19 8
32 20 10
32 21 1
32 23 11
32 25 11
32 26 10
32 27 14
32 28 13
32 29 4
32 30 7
32 31 9
33 0 4
33 9 3
33 12 11
33 13 12
33 14 5
33 17 4
33 21 14
33 23 4
33 29 7
33 31 9
34 0 7
34 3 6
34 6 13
34 10 7
34 11 6
34 16 8
34 17 4
34 18 13
34 20 11
34 22 14
34 23 13
34 24 11
34 25 8
34 28 10
34 29 5
34 31 11
34 32 2
34 33 9
35 1 14
35 2 12
35 3 13
35 5 6
35 7 13
35 9 10
35 10 6
35 12 14
35 14 9
35 15 7
35 18 7
35 19 5
35 21 5
35 23 5
35 26 10
35 28 9
35 29 6
35 32 9
35 33 3
36 0 9
36 1 4
36 2 5
36 5 6
36 6 2
36 7 8
36 9 12
36 10 6
36 14 9
36 19 5
36 22 4
36 23 7
36 24 14
36 26 3
36 28 7
36 32 6
36 34 4
36 35 6
37 1 9
37 3 5
37 5 6
37 6 4
37 7 13
37 8 1
37 9 2
37 13 14
37 15 8
37 17 2
37 18 7
37 19 14
37 20 10
37 22 12
37 23 3
37 24 8
37 26 14
37 27 14
37 30 7
37 31 2
37 34 9
37 35 6
37 36 2
38 0 7
38 3 10
38 4 13
38 5 14
38 6 2
38 7 3
38 11 3
38 12 7
38 13 13
38 18 11
38 22 9
38 23 4
38 25 1
38 26 7
38 33 8
38 36 4
39 0 13
39 1 4
39 2 3
39 6 11
39 12 13
39 14 3
39 15 7
39 19 11
39 20 3
39 21 12
39 22 6
39 23 2
39 24 2
39 26 10
39 28 10
39 29 1
39 31 7
39 32 12
39 33 6
39 34 10
39 35 13
39 36 12
39 38 13
40 0 13
40 1 13
40 3 14
40 4 7
40 6 12
40 7 4
40 8 14
40 9 7
40 11 4
40 12 1
40 13 6
40 15 14
40 21 11
40 23 10
40 26 6
40 30 11
40 33 1
40 34 8
40 35 13
40 39 7
41 2 6
41 3 7
41 5 5
41 6 13
41 7 10
41 9 3
41 12 8
41 16 5
41 19 1
41 20 9
41 21 12
41 22 4
41 23 14
41 24 13
41 26 13
41 29 3
41 30 10
41 32 6
41 33 2
41 34 9
41 35 2
41 36 13
41 38 9
42 3 11
42 5 3
42 8 4
42 10 6
42 11 14
42 14 10
42 15 7
42 16 1
42 23 14
42 27 14
42 28 2
42 31 2
42 34 10
42 36 10
42 37 9
42 40 1
43 1 1
43 2 6
43 4 12
43 7 1
43 12 4
43 13 11
43 16 1
43 17 3
43 18 8
43 24 13
43 26 5
43 27 6
43 28 12
43 30 1
43 34 13
43 35 11
43 37 12
43 40 1
44 0 6
44 1 11
44 2 3
44 3 7
44 10 7
44 15 4
44 16 5
44 18 12
44 19 10
44 20 7
44 23 4
44 24 2
44 25 10
44 26 11
44 27 3
44 28 14
44 31 8
44 32 11
44 34 3
44 35 6
44 36 5
44 39 5
44 42 6
45 1 1
45 5 14
45 6 3
45 9 8
45 11 7
45 13 1
45 14 5
45 15 8
45 16 10
45 17 3
45 18 13
45 19 3
45 20 3
45 21 3
45 22 11
45 23 12
45 25 10
45 26 11
45 27 13
45 30 11
45 32 11
45 34 10
45 35 5
45 36 8
45 38 8
45 40 4
45 42 1
45 43 10
45 44 12
46 0 14
46 1 11
46 2 8
46 5 14
46 6 9
46 8 13
46 10 14
46 11 3
46 12 3
46 15 3
46 19 13
46 22 13
46 23 5
46 24 7
46 27 12
46 28 11
46 31 1
46 32 11
46 33 4
46 35 10
46 37 7
46 38 2
46 42 6
46 44 1
47 0 11
47 1 13
47 2 7
47 4 7
47 5 4
47 8 8
47 9 10
47 10 1
47 12 13
47 16 2
47 19 8
47 20 10
47 22 14
47 23 1
47 24 10
47 26 1
47 27 3
47 30 8
47 31 8
47 33 6
47 35 2
47 36 12
47 39 2
47 40 9
47 41 2
47 44 14
47 45 4
48 2 3
48 4 3
48 6 2
48 7 9
48 8 2
48 9 10
48 10 7
48 11 11
48 12 7
48 15 10
48 16 5
48 17 11
48 18 14
48 21 10
48 27 14
48 30 7
48 32 11
48 34 9
48 35 11
48 36 10
48 37 2
48 39 7
48 40 3
48 41 13
48 42 1
48 43 1
48 44 9
48 46 6
48 47 11
49 1 2
49 5 9
49 9 12
49 10 1
49 11 8
49 12 5
49 17 13
49 19 8
49 21 11
49 22 5
49 26 3
49 27 14
49 29 10
49 30 11
49 33 12
49 34 14
49 35 11
49 39 3
49 46 5
49 48 4
50 0 10
50 5 1
50 7 3
50 11 6
50 13 14
50 18 14
50 19 10
50 22 6
50 24 9
50 28 11
50 31 8
50 32 10
50 33 8
50 36 9
50 37 11
50 38 8
50 39 10
50 40 2
50 41 7
50 42 12
50 46 2
50 48 12
51 2 10
51 5 8
51 6 2
51 8 13
51 9 8
51 10 8
51 11 13
51 12 4
51 14 11
51 15 10
51 16 2
51 17 8
51 18 12
51 21 13
51 22 9
51 24 1
51 25 5
51 28 10
51 31 13
51 33 2
51 34 8
51 37 5
51 38 3
51 39 4
51 40 14
51 42 12
51 43 12
51 45 2
51 46 2
51 47 1
51 50 8
52 0 9
52 2 10
52 4 5
52 5 2
52 6 7
52 9 4
52 10 7
52 13 12
52 14 11
52 15 6
52 16 13
52 17 8
52 18 7
52 23 11
52 24 5
52 25 6
52 31 5
52 34 1
52 35 4
52 36 1
52 38 11
52 39 12
52 41 4
52 43 8
52 49 14
52 50 5
53 3 1
53 4 13
53 6 8
53 9 8
53 10 13
53 11 1
53 13 12
53 14 6
53 16 1
53 18 5
53 20 5
53 21 14
53 22 8
53 24 9
53 29 7
53 30 7
53 31 8
53 32 3
53 33 14
53 34 14
53 35 7
53 36 5
53 37 5
53 40 14
53 44 2
53 48 7
53 49 5
53 50 11
53 51 5
54 1 13
54 2 1
54 3 10
54 4 4
54 10 2
54 12 8
54 14 13
54 19 9
54 22 2
54 26 6
54 27 1
54 28 11
54 30 3
54 34 1
54 35 5
54 37 5
54 38 4
54 41 12
54 45 5
54 50 3
54 51 5
55 6 4
55 8 5
55 9 1
55 11 13
55 13 10
55 14 6
55 16 7
55 17 10
55 20 14
55 21 2
55 24 2
55 28 14
55 29 7
55 31 12
55 36 2
55 39 5
55 40 4
55 42 14
55 44 10
55 47 3
55 48 8
55 50 6
55 53 7
55 54 1
56 2 7
56 3 9
56 5 2
56 6 2
56 7 7
56 8 11
56 9 11
56 13 14
56 14 2
56 15 3
56 17 8
56 19 9
56 20 10
56 21 13
56 22 7
56 24 7
56 25 5
56 27 2
56 28 2
56 29 10
56 31 8
56 33 8
56 35 13
56 36 12
56 37 4
56 38 3
56 40 7
56 44 10
56 45 6
56 46 5
56 48 2
56 50 3
56 51 12
56 52 12
56 54 9
56 55 8
57 0 13
57 3 11
57 4 9
57 6 8
57 7 11
57 11 12
57 13 10
57 14 9
57 15 11
57 16 10
57 18 14
57 19 10
57 21 7
57 22 11
57 26 7
57 29 11
57 30 14
57 31 11
57 34 2
57 40 8
57 47 6
57 50 13
57 51 8
57 53 14
57 54 8
57 55 5
57 56 3
58 0 14
58 4 6
58 5 14
58 6 11
58 8 2
58 9 4
58 10 12
58 12 1
58 15 14
58 16 9
58 17 7
58 18 2
58 20 3
58 21 14
58 22 11
58 26 2
58 29 3
58 30 9
58 31 14
58 32 2
58 33 5
58 34 3
58 38 9
58 40 1
58 42 3
58 44 11
58 46 8
58 47 12
58 49 1
58 50 5
58 51 10
58 53 12
58 54 13
58 55 10
58 56 14
59 2 11
59 4 4
59 10 5
59 11 13
59 13 7
59 16 10
59 17 12
59 18 6
59 19 10
59 20 1
59 23 5
59 33 1
59 35 5
59 39 6
59 40 12
59 41 5
59 42 7
59 45 4
59 48 5
59 49 5
59 50 1
59 51 4
59 53 9
59 55 14
59 58 4
